#2D Binary LJ simulation in contact with a wall
# Type 1 is the solvent
# Type 2 is the solute
# Type 3 is the wall

dimension 	2

units		lj
atom_style	atomic
neighbor	0.5 bin
neigh_modify	every 1 delay 10 check yes

#Variable definition

variable 	MyInitial equal 0.5e6
variable 	MyFinal equal 10^5
variable 	MyTrajectory equal 10^4
variable 	MyThermo equal 1000

##########################################################
#Intialisation
##########################################################

read_restart 	../0.Initialisation/equil.conf

include 	../in.interaction
include		in.geom

fix 		2dconstraint all enforce2d


##########################################################
#Defining the wall
##########################################################

fix	   	SlipWall gFluid wall/reflect yhi EDGE #SlipWall
velocity     	gWall set 0.0 0.0 0.0
fix	     	staticwall gWall setforce 0.0 0.0 0.0


# Run Parameters

timestep	0.005
#inimize 	0.0 1.0e-8 1000 100000          #Relax the initial configuration and velocities
reset_timestep 	0


##########################################################
# NVT ENSEMBLE
##########################################################

fix          Ensemble gFluid nvt temp 1.0 1.0 0.1
compute      temp_fluid gFluid temp
fix_modify   Ensemble temp temp_fluid

#Compute and outputs

thermo		${MyThermo} 
thermo_style 	custom step temp c_temp_fluid press atoms ylo yhi ly pe ke
thermo_modify 	flush yes
dump 		dump_all all custom ${MyTrajectory} all.atom id type x y z ix iy iz

run 		${MyInitial}

include 	in.computations


run 		${MyFinal}



