#3D Binary LJ flow simulation
# Type 1 is the solvent
# Type 2 is the solute
# Type 3 is the wall

dimension 	2
boundary	p f p #f is fixed wall, to set the slipwall condition, it cant be periodic. 

units		lj
atom_style	atomic
neighbor	0.5 bin
neigh_modify	every 1 delay 10 check yes

#Variable definition

variable 	MyInitial equal 4e5
variable 	MyBarostat equal 2.0e5
variable 	MyFinal equal 10^5
variable 	MyTrajectory equal 10^4
variable 	Lx equal 17
variable	Height equal 36
variable 	a equal 1 #Lattice Constant
variable 	Xsolute equal 0.2
variable 	MyThermo equal 1000
variable 	P0 equal 1e0

##########################################################
#Intialisation
##########################################################

#Creating the geometry
region 		box block 0 ${Lx} 0 ${Height} -0.25 0.25
create_box	3 box

#Wall atoms

lattice 	sq ${a}
region 		rwall block INF INF  0 0 INF INF units box
create_atoms 	3 region rwall
group 		gwall region rwall

#Fluid atoms
lattice 	sq 0.75 
region 		rfluid block INF INF 1 ${Height} INF INF
create_atoms	1 region rfluid
group 		gfluid subtract all gwall


#Creating the solute particles
set          	group gfluid type/fraction 2 ${Xsolute} 2436 #Solute creation randomly replacing 

#Including the interactions 
include 	../in.interaction

fix 		2dconstraint all enforce2d

#Defining the wall
fix	   	SlipWall gfluid wall/reflect yhi EDGE #SlipWall
velocity     	gwall set 0.0 0.0 0.0
fix	     	staticwall gwall setforce 0.0 0.0 0.0
# Run Parameters

timestep	0.005
minimize 	0.0 1.0e-8 1000 100000          #Relax the initial configuration and velocities
reset_timestep 	0

#Set velocity of particles 
#velocity 	gfluid create 1.0 123234 dist gaussian

#Set 
fix 		Ensemble gfluid nvt temp 1.0 1.0 1.0

#Compute and outputs
thermo		${MyThermo} 
thermo_style 	custom step temp  press pyy vol ly ylo yhi
thermo_modify 	flush yes

dump 		dump_all all custom ${MyTrajectory} all.atom id type x y z ix iy iz

run 		${MyInitial}


##########################################################
#Barostating
##########################################################
variable 	Ly equal ly
variable 	Lx equal lx
variable 	Lz equal lz
change_box      all boundary p s p
variable        NatomsWall equal count(gwall)
variable        WallForce equal 100/${NatomsWall}
unfix 		staticwall
fix             wallforces1 gwall setforce 0.0 NULL 0.0
fix             wallforces2 gwall aveforce 0.0 ${WallForce} 0.0

fix 		average_ly all ave/time 1 1000 1000 v_Ly ave running overwrite

run		${MyBarostat}
##########################################################
#Finalising
##########################################################

#Setting the simulation to the average lz
change_box      all boundary p f p
variable 	ly_ave equal f_average_ly
print 		"The average value of ly is ${ly_ave}"

change_box 	all y final 0 ${ly_ave} remap units box 

include 	in.geom
include 	in.computations

unfix 		wallforces1
unfix 		wallforces2

fix             staticwall gwall setforce 0.0 0.0 0.0

compute         ccBulk  gSolu chunk/atom bin/1d y lower 0.1 bound y 10 20 units box
fix             propSolu  gSolu ave/chunk ${myNevery} ${myNrepeat} ${myFreq}  ccBulk c_Stress[1] c_Stress[2] c_Stress[3] file bulk_properties.dat ave running overwrite


#Writing the final configuration
#write_data 	final_conf.dat nocoeff
run 		${MyFinal}
