atom_style      atomic                                  

#Run Parameters
variable        ext_temp equal 1.50                    
variable        Nevery equal 20                        
variable        Nrepeat equal 50                        
                                                        
variable        Nfreq equal ${Nevery}*${Nrepeat}        
                                                        
variable        nrun equal 1000000                      
variable        Tdamp equal 0.500                        
variable        cfg_seed equal 45232                   
variable        vel_seed equal 87287                   

#System Size: Set Nmols and density, get volume
variable        Nmols equal 10000                       
variable        density equal ${rho}                    
variable        L equal (${Nmols}/${density})^(1.0/3.0)
                                                        

#System Volume
boundary        p p p                                  
region          box block 0.0 ${L} 0.0 ${L} 0.0 ${L}    
create_box      1 box                                   
create_atoms    1 random ${Nmols} ${cfg_seed} NULL      

#Molecular Model
# NOTE: This block must be after the "System Volume" sec
pair_style      lj/cut 2.5                              
                                                        
pair_coeff      1 1 1.0 1.0                             
mass            1 1.0                                   

#Neighbor List
neighbor        0.3 bin                                 
neigh_modify    delay 0 every 20 check no               
                                                        
                                                        
                                                        
#Initial Velocities
velocity        all create ${ext_temp} ${vel_seed} loop geom 
                                                        

#Relax the initial configuration
minimize        1.0E-4 1.0E-6 1000 100000               
                                                        
                                                        
#Ensemble Setup
fix		1 all nvt temp ${ext_temp} ${ext_temp} ${Tdamp}
# Previous line specifies: NVT ensemble, thermostatted bt_temp

#Output
variable        PotentialEnergy equal epair             
variable        Pressure equal press                    
variable        Temperature equal temp                  
fix             2 all ave/time ${Nevery} ${Nrepeat} ${Nfreq} v_Temperature v_PotentialEnergy v_Pressure file ave.dens_${rho}.out format %.8g

thermo          10000                                 
thermo_style    custom step temp epair press         

include 	in.computations   
                                                        

#Run it!
run             ${nrun}                                 
write_restart   in.nvt.dens_${rho}                      
