#2D Binary LJ simulation in contact with a wall
# Type 1 is the solvent
# Type 2 is the solute
# Type 3 is the wall

dimension 	3
boundary	p p f #f is fixed wall, to set the slipwall condition, it cant be periodic. 

units		lj
atom_style	atomic
neighbor	0.5 bin
neigh_modify	every 1 delay 10 check yes

#Variable definition

variable 	MyInitial equal 0.5e6
variable 	MyBarostat equal 0.5e6
variable 	MyFinal equal 10^5
variable 	MyTrajectory equal 10^4
variable 	Lx equal 10
variable	Height equal 20
variable 	a equal 1 #Lattice Constant
variable 	Xsolute equal 0.2
variable 	MyThermo equal 1000
variable 	P0 equal 1e0

##########################################################
#Intialisation
##########################################################

#Creating the geometry
region 		box block 0 ${Lx} 0 ${Lx} 0 ${Height}
create_box	3 box

#Wall atoms

lattice 	sc ${a}
region 		rwall block INF INF INF INF 0 0  units box
create_atoms 	3 region rwall
group 		gwall region rwall

#Fluid atoms
lattice 	sc 0.5
region 		rfluid block INF INF INF INF 1 ${Height} units box
create_atoms	1 region rfluid
group 		gfluid subtract all gwall


#Creating the solute particles
set          	group gfluid type/fraction 2 ${Xsolute} 2436 #Solute creation randomly replacing 

#Including the interactions 
include 	../in.interaction



##########################################################
#Defining the wall
##########################################################

fix	   	SlipWall gfluid wall/reflect zhi EDGE #SlipWall
velocity     	gwall set 0.0 0.0 0.0
fix	     	staticwall gwall setforce 0.0 0.0 0.0


# Run Parameters

timestep	0.005
minimize 	0.0 1.0e-8 1000 100000          #Relax the initial configuration and velocities
reset_timestep 	0



##########################################################
# NVE ENSEMBLE
##########################################################

compute      mobile gfluid temp
fix          Ensemble all nve
fix          Thermostat gfluid temp/rescale 200 1.0 1.0 0.02 1.0
fix_modify   Thermostat temp mobile 

#Compute and outputs

thermo		${MyThermo} 
thermo_style 	custom step temp c_mobile press atoms zlo zhi lz pe ke
thermo_modify 	flush yes
dump 		dump_all all custom ${MyTrajectory} all.atom id type x y z ix iy iz

run 		${MyInitial}


##########################################################
#Barostating
##########################################################
variable 	Ly equal ly
variable 	Lx equal lx
variable 	Lz equal lz

change_box      all boundary p p s
variable        NatomsWall equal count(gwall)
variable        WallForce equal ${P0}*lx*ly/${NatomsWall}
unfix 		staticwall

fix             wallforces2 gwall setforce 0.0 0.0 ${WallForce}

run             ${MyBarostat}

fix 		average_lz all ave/time 1 1000 1000 v_Lz ave running overwrite

run		${MyBarostat}


##########################################################
# Stopping all the movements 
##########################################################

unfix		wallforces1
unfix 		wallforces2 
velocity     	all set 0.0 0.0 0.0
fix		enforce all setforce 0.0 0.0 0.0 
unfix 		enforce
fix             staticwall gwall setforce 0.0 0.0 0.0

variable        zmin equal -zlo  


##########################################################
# Setting the simulation to the average lz
##########################################################

variable 	lz_ave equal f_average_lz
print 		"The average value of lz is ${lz_ave}"

thermo 		2
change_box      all boundary p p f remap 
unfix		SlipWall 
fix	   	SlipWall all wall/reflect zhi EDGE #SlipWall
minimize        1.0e-7 1.0e-6 10000 100000          #Relax the initial configuration and velocities

# Moving the box limits to the desired 

variable       scale equal ${lz_ave}/lz
fix            deform all deform 10 z final 0 ${lz_ave} remap x

run 		${MyFinal}

write_restart   equil.conf
run		0 
#fix 		recenter gwall recenter NULL -0.5 NULL shift all units box

#run 10000


#Writing the final configuration
write_data 	final_conf.dat nocoeff

